
List of user-set options:

                                    Name   Value                used
                           linear_solver = mumps                 yes
                  ma57_automatic_scaling = yes                    no
                                max_iter = 2000                  yes
                             mu_strategy = adaptive              yes
                             output_file = GPOPS_MarkIPOPTinfo.txt  yes
                             print_level = 5                     yes
                      print_user_options = yes                   yes
                                     tol = 1e-007                yes
This is Ipopt version 3.11.0, running with linear solver mumps.

Number of nonzeros in equality constraint Jacobian...:     2841
Number of nonzeros in inequality constraint Jacobian.:        0
Number of nonzeros in Lagrangian Hessian.............:     1129

Total number of variables............................:      499
                     variables with only lower bounds:        0
                variables with lower and upper bounds:      499
                     variables with only upper bounds:        0
Total number of equality constraints.................:      369
Total number of inequality constraints...............:        1
        inequality constraints with only lower bounds:        0
   inequality constraints with lower and upper bounds:        1
        inequality constraints with only upper bounds:        0

iter    objective    inf_pr   inf_du lg(mu)  ||d||  lg(rg) alpha_du alpha_pr  ls
   0 9.9999900e-001 3.82e-001 3.21e+001   0.0 0.00e+000    -  0.00e+000 0.00e+000   0
   1 9.9990000e-003 3.41e-001 1.97e+001  -3.9 2.13e-001   2.0 6.80e-001 1.08e-001f  1
   2 3.6718968e+000 3.00e-001 3.03e+003   0.4 5.22e-001   2.4 9.90e-001 1.19e-001f  1
   3 3.6999928e+000 2.11e-001 1.21e+003   0.5 4.02e-002   3.8 9.59e-001 2.99e-001h  1
   4 4.9188186e+000 8.23e-002 1.39e+003   0.4 2.90e-002   4.2 9.99e-001 6.09e-001h  1
   5 5.9296478e+000 2.30e-002 4.05e+002  -0.6 2.86e-002   3.7 1.00e+000 7.20e-001h  1
   6 6.0561172e+000 1.20e-002 7.06e+002  -1.8 8.22e-003   4.1 1.00e+000 4.90e-001h  1
   7 5.3334599e+000 2.19e-003 2.60e+002  -3.2 1.48e-002   3.7 8.89e-001 1.00e+000f  1
   8 5.0422330e+000 2.49e-004 4.31e+001  -1.2 3.50e-003   4.1 1.00e+000 1.00e+000f  1
   9 3.8400608e+000 9.09e-004 4.80e+001  -2.4 1.20e-002   3.6 1.00e+000 1.00e+000f  1
iter    objective    inf_pr   inf_du lg(mu)  ||d||  lg(rg) alpha_du alpha_pr  ls
  10 1.5220612e+000 4.39e-003 3.62e+001  -3.0 2.61e-002   3.1 1.00e+000 8.89e-001f  1
  11 3.3066298e-002 5.66e-003 1.73e+001  -4.3 2.35e-002   2.6 1.00e+000 7.04e-001f  1
  12 3.2967298e-004 5.23e-003 1.19e+001  -4.4 2.39e-002   2.2 1.00e+000 8.01e-002f  1
  13 7.0775529e-006 1.64e-003 5.57e+000  -4.6 1.32e-002   2.6 1.00e+000 8.86e-001h  1
  14 4.7803143e-005 9.90e-004 1.40e+001  -4.8 8.33e-003   2.1 1.00e+000 4.47e-001h  1
  15 2.9692564e-005 4.08e-004 8.82e+000  -4.7 6.41e-003   1.6 1.00e+000 7.24e-001h  1
  16 5.3148526e-005 3.51e-004 1.73e+001  -4.0 1.43e-002   1.2 9.97e-001 1.58e-001h  1
  17 2.5906114e-005 1.85e-004 8.08e+000  -5.4 3.46e-003   1.6 1.00e+000 5.50e-001h  1
  18 -7.3093886e-007 5.63e-005 1.71e+000  -6.4 2.47e-003   1.1 1.00e+000 8.98e-001h  1
  19 -9.9274190e-007 1.41e-005 1.17e-001  -7.6 1.34e-003   0.6 1.00e+000 1.00e+000h  1
iter    objective    inf_pr   inf_du lg(mu)  ||d||  lg(rg) alpha_du alpha_pr  ls
  20 -9.9949848e-007 3.57e-006 3.08e-002  -9.1 6.48e-004   0.2 1.00e+000 1.00e+000h  1
  21 -9.9983862e-007 9.06e-007 7.97e-003  -9.8 3.32e-004  -0.3 1.00e+000 1.00e+000h  1
  22 -9.9999192e-007 2.31e-007 2.03e-003 -11.0 1.69e-004  -0.8 1.00e+000 1.00e+000h  1
  23 -9.9998968e-007 6.05e-008 5.21e-004 -11.0 8.45e-005  -1.3 1.00e+000 1.00e+000h  1
  24 -9.9998969e-007 1.83e-008 1.69e-005 -11.0 4.39e-005  -1.7 1.00e+000 1.00e+000h  1
  25 -9.9979846e-007 1.05e-008 1.08e+000  -9.6 3.23e-005  -2.2 1.00e+000 7.05e-001h  1
In iteration 25, 1 Slack too small, adjusting variable bound
  26 -9.9976729e-007 1.01e-008 6.90e+000  -9.6 4.68e-004  -2.7 9.28e-002 6.41e-002h  1
  27 -9.9967659e-007 1.00e-008 5.23e+001  -9.6 3.29e-003  -3.2 1.30e-002 5.05e-003h  2
  28 4.8282600e-009 8.13e-012 1.34e+001  -9.6 3.09e-005  -3.7 8.10e-001 1.00e+000h  1
  29 3.0231928e-010 4.72e-011 1.03e-003  -9.6 6.67e-005  -4.1 1.00e+000 1.00e+000h  1
iter    objective    inf_pr   inf_du lg(mu)  ||d||  lg(rg) alpha_du alpha_pr  ls
  30 1.2970736e-009 9.57e-012 3.25e-006 -10.4 8.46e-005  -4.6 1.00e+000 1.00e+000h  1
  31 8.6687324e-010 5.62e-011 1.12e-006 -11.0 2.06e-004  -5.1 1.00e+000 1.00e+000h  1
  32 8.9713792e-010 4.09e-011 1.22e-006 -11.0 5.86e-004  -5.6 1.00e+000 1.00e+000h  1
  33 8.7108654e-010 3.30e-011 6.39e-006 -11.0 1.58e-003  -6.0 1.00e+000 1.00e+000h  1
  34 8.1432638e-010 1.14e-010 2.51e-005 -11.0 3.68e-003  -6.5 1.00e+000 1.00e+000h  1
  35 7.4259487e-010 4.07e-010 4.87e-005 -11.0 6.91e-003  -7.0 1.00e+000 1.00e+000h  1
  36 6.9788064e-010 3.23e-010 2.95e-005 -11.0 7.56e-003  -7.5 1.00e+000 1.00e+000h  1
  37 6.7472694e-010 3.59e-010 2.21e-005 -11.0 1.28e-002  -8.0 1.00e+000 1.00e+000h  1
  38 6.6264216e-010 8.41e-010 8.93e-006 -11.0 2.21e-002  -8.4 1.00e+000 1.00e+000h  1
  39 6.5041306e-010 3.61e-009 6.45e-005 -11.0 5.12e-002  -8.9 1.00e+000 1.00e+000h  1
iter    objective    inf_pr   inf_du lg(mu)  ||d||  lg(rg) alpha_du alpha_pr  ls
  40 6.4724892e-010 5.11e-010 1.37e-005 -11.0 2.42e-002  -8.5 1.00e+000 1.00e+000h  1
  41 6.4483974e-010 4.11e-010 3.80e-007 -11.0 1.35e-002  -8.1 1.00e+000 1.00e+000h  1
  42 6.7061912e-010 1.03e-008 3.00e-004 -10.7 8.38e-002  -8.5 1.00e+000 1.00e+000h  1
  43 6.2868599e-010 1.81e-009 1.75e-005 -10.8 2.52e-002  -9.0 1.00e+000 1.00e+000h  1
  44 6.4749872e-010 6.09e-010 6.69e-007 -10.8 3.37e-002  -9.5 1.00e+000 1.00e+000h  1
  45 6.4804273e-010 9.41e-010 5.39e-007 -10.8 3.46e-002 -10.0 1.00e+000 1.00e+000h  1
  46 6.4813155e-010 1.02e-010 9.51e-006 -10.8 5.94e-002 -10.4 1.00e+000 1.00e+000H  1
  47 6.0918492e-010 1.06e-009 2.53e-006 -11.0 4.54e-002    -  1.00e+000 1.00e+000h  1
  48 6.1330940e-010 2.46e-010 1.93e-006 -11.0 1.99e-002    -  1.00e+000 1.00e+000h  1
  49 6.1378680e-010 7.43e-011 7.35e-006 -11.0 7.65e-002 -10.9 1.00e+000 1.00e+000H  1
iter    objective    inf_pr   inf_du lg(mu)  ||d||  lg(rg) alpha_du alpha_pr  ls
  50 6.1417538e-010 7.28e-010 1.85e-006 -11.0 4.05e-002    -  1.00e+000 1.00e+000h  1
  51 6.1489147e-010 4.50e-010 1.91e-005 -11.0 1.01e-001  -9.6 1.00e+000 1.00e+000H  1
  52 6.1080030e-010 7.52e-010 1.10e-005 -11.0 2.70e-002    -  1.00e+000 1.00e+000h  1
  53 6.1284866e-010 4.86e-011 3.03e-007 -11.0 9.50e-003    -  1.00e+000 1.00e+000h  1
  54 6.1293748e-010 1.02e-013 1.45e-009 -11.0 2.13e-004    -  1.00e+000 1.00e+000h  1

Number of Iterations....: 54

                                   (scaled)                 (unscaled)
Objective...............:  6.1293747855017955e-010   6.1293747855017955e-010
Dual infeasibility......:  1.4472691221899815e-009   1.4472691221899815e-009
Constraint violation....:  1.0215175896701281e-013   1.0215175896701281e-013
Complementarity.........:  1.0000000103624503e-011   1.0000000103624503e-011
Overall NLP error.......:  1.4472691221899815e-009   1.4472691221899815e-009


Number of objective function evaluations             = 60
Number of objective gradient evaluations             = 55
Number of equality constraint evaluations            = 60
Number of inequality constraint evaluations          = 60
Number of equality constraint Jacobian evaluations   = 55
Number of inequality constraint Jacobian evaluations = 55
Number of Lagrangian Hessian evaluations             = 54
Total CPU secs in IPOPT (w/o function evaluations)   =      0.294
Total CPU secs in NLP function evaluations           =      1.018

EXIT: Optimal Solution Found.
